c 3-Coloring of graph with 20 vertices, 65 edges
c Variable x[v][c] = vertex v has color c  (v=0..19, c=0..2)
c Variable number: v*3 + c + 1
c SAT Competition 2026 — Experimental Track — LLM-Guided SAT Solver
c Difficulty: medium
p cnf 60 275
1 2 3 0
4 5 6 0
7 8 9 0
10 11 12 0
13 14 15 0
16 17 18 0
19 20 21 0
22 23 24 0
25 26 27 0
28 29 30 0
31 32 33 0
34 35 36 0
37 38 39 0
40 41 42 0
43 44 45 0
46 47 48 0
49 50 51 0
52 53 54 0
55 56 57 0
58 59 60 0
-1 -2 0
-1 -3 0
-2 -3 0
-4 -5 0
-4 -6 0
-5 -6 0
-7 -8 0
-7 -9 0
-8 -9 0
-10 -11 0
-10 -12 0
-11 -12 0
-13 -14 0
-13 -15 0
-14 -15 0
-16 -17 0
-16 -18 0
-17 -18 0
-19 -20 0
-19 -21 0
-20 -21 0
-22 -23 0
-22 -24 0
-23 -24 0
-25 -26 0
-25 -27 0
-26 -27 0
-28 -29 0
-28 -30 0
-29 -30 0
-31 -32 0
-31 -33 0
-32 -33 0
-34 -35 0
-34 -36 0
-35 -36 0
-37 -38 0
-37 -39 0
-38 -39 0
-40 -41 0
-40 -42 0
-41 -42 0
-43 -44 0
-43 -45 0
-44 -45 0
-46 -47 0
-46 -48 0
-47 -48 0
-49 -50 0
-49 -51 0
-50 -51 0
-52 -53 0
-52 -54 0
-53 -54 0
-55 -56 0
-55 -57 0
-56 -57 0
-58 -59 0
-58 -60 0
-59 -60 0
-1 -4 0
-2 -5 0
-3 -6 0
-1 -13 0
-2 -14 0
-3 -15 0
-1 -19 0
-2 -20 0
-3 -21 0
-1 -25 0
-2 -26 0
-3 -27 0
-1 -46 0
-2 -47 0
-3 -48 0
-1 -49 0
-2 -50 0
-3 -51 0
-4 -7 0
-5 -8 0
-6 -9 0
-4 -10 0
-5 -11 0
-6 -12 0
-4 -13 0
-5 -14 0
-6 -15 0
-4 -16 0
-5 -17 0
-6 -18 0
-4 -25 0
-5 -26 0
-6 -27 0
-4 -37 0
-5 -38 0
-6 -39 0
-4 -43 0
-5 -44 0
-6 -45 0
-4 -49 0
-5 -50 0
-6 -51 0
-7 -10 0
-8 -11 0
-9 -12 0
-7 -19 0
-8 -20 0
-9 -21 0
-7 -25 0
-8 -26 0
-9 -27 0
-7 -31 0
-8 -32 0
-9 -33 0
-7 -34 0
-8 -35 0
-9 -36 0
-10 -25 0
-11 -26 0
-12 -27 0
-10 -40 0
-11 -41 0
-12 -42 0
-13 -22 0
-14 -23 0
-15 -24 0
-13 -28 0
-14 -29 0
-15 -30 0
-13 -31 0
-14 -32 0
-15 -33 0
-13 -34 0
-14 -35 0
-15 -36 0
-13 -40 0
-14 -41 0
-15 -42 0
-13 -46 0
-14 -47 0
-15 -48 0
-13 -49 0
-14 -50 0
-15 -51 0
-13 -52 0
-14 -53 0
-15 -54 0
-13 -58 0
-14 -59 0
-15 -60 0
-16 -19 0
-17 -20 0
-18 -21 0
-16 -37 0
-17 -38 0
-18 -39 0
-16 -43 0
-17 -44 0
-18 -45 0
-16 -52 0
-17 -53 0
-18 -54 0
-16 -55 0
-17 -56 0
-18 -57 0
-19 -22 0
-20 -23 0
-21 -24 0
-19 -28 0
-20 -29 0
-21 -30 0
-19 -31 0
-20 -32 0
-21 -33 0
-19 -37 0
-20 -38 0
-21 -39 0
-19 -40 0
-20 -41 0
-21 -42 0
-19 -52 0
-20 -53 0
-21 -54 0
-19 -58 0
-20 -59 0
-21 -60 0
-22 -28 0
-23 -29 0
-24 -30 0
-22 -58 0
-23 -59 0
-24 -60 0
-25 -43 0
-26 -44 0
-27 -45 0
-25 -55 0
-26 -56 0
-27 -57 0
-28 -46 0
-29 -47 0
-30 -48 0
-28 -52 0
-29 -53 0
-30 -54 0
-28 -55 0
-29 -56 0
-30 -57 0
-31 -49 0
-32 -50 0
-33 -51 0
-34 -37 0
-35 -38 0
-36 -39 0
-34 -43 0
-35 -44 0
-36 -45 0
-34 -55 0
-35 -56 0
-36 -57 0
-37 -43 0
-38 -44 0
-39 -45 0
-37 -49 0
-38 -50 0
-39 -51 0
-37 -58 0
-38 -59 0
-39 -60 0
-40 -43 0
-41 -44 0
-42 -45 0
-40 -58 0
-41 -59 0
-42 -60 0
-43 -46 0
-44 -47 0
-45 -48 0
-43 -49 0
-44 -50 0
-45 -51 0
-49 -55 0
-50 -56 0
-51 -57 0
-49 -58 0
-50 -59 0
-51 -60 0
-52 -55 0
-53 -56 0
-54 -57 0
-52 -58 0
-53 -59 0
-54 -60 0
-55 -58 0
-56 -59 0
-57 -60 0
